&control
  calculation = 'scf'
  prefix='Si',

  pseudo_dir = './',
  outdir='./work/'
  wf_collect=.true.
/

&system
  ibrav=  4, 
  celldm(1) =12.45395657,
  celldm(3) = 1.41421214723,
  nat = 26, 
  ntyp = 1,

  ecutwfc =18.0,
/

&electrons
  mixing_beta = 0.7
  conv_thr =  1.0d-8
/
ATOMIC_SPECIES
  Si  28.086  Si.pz-vbc.UPF
ATOMIC_POSITIONS {crystal}
  Si 0.00 0.00 0.00
  Si 0.333333333 0.666666666 0
  Si 0.666666666 0.333333333 0
  Si 0 0 0.25
  Si 0.333333333 0.666666666 0.25
  Si 0.666666666 0.333333333 0.25
  Si 0 0.75 0.333333333
  Si 0.25 0.25 0.333333333
  Si 0.75 0 0.333333333
  Si 1 0.75 0.333333333
  Si 0.75 1 0.333333333
  Si 0.75 0 0.583333333
  Si 0.25 0.25 0.583333333
  Si 1 0.75 0.583333333
  Si 0 0.75 0.583333333
  Si 0.75 1 0.583333333
  Si 0.25 0 0.666666666
  Si 0 0.25 0.666666666
  Si 1 0.25 0.666666666
  Si 0.75 0.75 0.666666666
  Si 0.25 0.75 0.666666666
  Si 0.25 0 0.916666666
  Si 0 0.25 0.916666666
  Si 1 0.25 0.916666666
  Si 0.75 0.75 0.916666666
  Si 0.25 1 0.916666666
K_POINTS {automatic}
  12 12 12 0 0 0
